NAME : ch130.tour
TYPE : TOUR
DIMENSION : 130
OBJECTIVE : 7579.000000
TIME : 0.000303
TOUR_SECTION
1
41
39
71
130
50
2
118
80
46
20
35
54
17
31
34
27
19
100
116
24
15
29
95
79
38
106
58
49
53
120
60
51
42
44
40
47
37
22
23
122
55
14
10
67
96
13
33
21
18
8
108
114
3
83
30
59
121
78
90
125
85
66
28
115
62
105
112
117
128
16
45
76
109
61
129
124
26
97
70
7
63
68
98
110
89
94
77
103
81
12
87
65
56
57
9
52
75
74
99
73
92
72
91
6
102
93
4
126
5
11
64
69
88
86
127
107
104
43
48
25
32
113
36
84
119
111
123
101
82
-1
EOF